
Gurobi 6.5.2 (win64) logging started 07/24/16 17:49:53


Gurobi 6.5.2 (win64) logging started 07/24/16 17:49:53

Optimize a model with 4437 rows, 825 columns and 10947 nonzeros
Coefficient statistics:
  Matrix range    [6e-08, 4e+02]
  Objective range [1e+00, 1e+00]
  Bounds range    [1e+00, 1e+00]
  RHS range       [6e-06, 2e+03]
Presolve removed 3747 rows and 86 columns
Presolve time: 0.02s
Presolved: 690 rows, 739 columns, 3562 nonzeros
Variable types: 285 continuous, 454 integer (454 binary)

Root relaxation: objective 2.026228e+01, 1696 iterations, 0.05 seconds

    Nodes    |    Current Node    |     Objective Bounds      |     Work
 Expl Unexpl |  Obj  Depth IntInf | Incumbent    BestBd   Gap | It/Node Time

     0     0   20.26228    0  126          -   20.26228      -     -    0s
H    0     0                     144.1798810   20.26228  85.9%     -    0s
     0     0   21.34682    0  122  144.17988   21.34682  85.2%     -    0s
H    0     0                      21.7457679   21.34682  1.83%     -    0s
     0     0   21.34694    0  122   21.74577   21.34694  1.83%     -    0s
H    0     0                      21.7139572   21.34694  1.69%     -    0s
H    0     0                      21.7015486   21.34694  1.63%     -    0s
     0     0   21.36754    0  106   21.70155   21.36754  1.54%     -    0s
     0     0   21.36754    0  107   21.70155   21.36754  1.54%     -    0s
     0     0   21.40293    0  107   21.70155   21.40293  1.38%     -    0s
     0     0   21.40732    0  105   21.70155   21.40732  1.36%     -    0s
     0     0   21.43071    0  102   21.70155   21.43071  1.25%     -    0s
     0     0   21.43300    0  104   21.70155   21.43300  1.24%     -    0s
     0     0   21.43302    0  111   21.70155   21.43302  1.24%     -    0s
     0     0   21.43302    0  100   21.70155   21.43302  1.24%     -    0s
     0     2   21.43302    0  100   21.70155   21.43302  1.24%     -    0s
H   27    13                      21.6855187   21.50375  0.84%  17.0    0s
*  175    68              21      21.6823869   21.56498  0.54%  10.4    0s
*  388    99              20      21.6770043   21.60123  0.35%  10.3    0s
H  609    63                      21.6760303   21.63300  0.20%  10.0    0s

Cutting planes:
  Gomory: 4
  MIR: 23

Explored 788 nodes (10279 simplex iterations) in 0.47 seconds
Thread count was 8 (of 8 available processors)

Optimal solution found (tolerance 1.00e-04)
Best objective 2.167603026245e+01, best bound 2.167603026245e+01, gap 0.0%

Wrote requested result file 'H1\instance27\\Results27E_Sol6.lp'

